c colouring generated by benchmark framework
p edge 450 17343
v 1 2
v 2 24
v 3 21
v 4 23
v 5 15
v 6 22
v 7 19
v 8 19
v 9 19
v 10 27
v 11 11
v 12 1
v 13 15
v 14 1
v 15 16
v 16 27
v 17 19
v 18 0
v 19 1
v 20 25
v 21 13
v 22 23
v 23 15
v 24 19
v 25 24
v 26 24
v 27 24
v 28 15
v 29 7
v 30 25
v 31 21
v 32 21
v 33 21
v 34 24
v 35 27
v 36 22
v 37 25
v 38 26
v 39 18
v 40 0
v 41 12
v 42 13
v 43 10
v 44 4
v 45 23
v 46 8
v 47 1
v 48 17
v 49 11
v 50 23
v 51 18
v 52 5
v 53 14
v 54 1
v 55 1
v 56 2
v 57 3
v 58 21
v 59 20
v 60 23
v 61 14
v 62 14
v 63 18
v 64 20
v 65 18
v 66 11
v 67 17
v 68 8
v 69 27
v 70 15
v 71 8
v 72 27
v 73 24
v 74 12
v 75 22
v 76 26
v 77 2
v 78 1
v 79 22
v 80 1
v 81 3
v 82 20
v 83 7
v 84 21
v 85 3
v 86 8
v 87 20
v 88 20
v 89 15
v 90 20
v 91 4
v 92 19
v 93 12
v 94 10
v 95 10
v 96 17
v 97 1
v 98 6
v 99 16
v 100 2
v 101 15
v 102 2
v 103 23
v 104 20
v 105 23
v 106 17
v 107 23
v 108 6
v 109 0
v 110 4
v 111 3
v 112 13
v 113 16
v 114 25
v 115 11
v 116 3
v 117 8
v 118 15
v 119 20
v 120 17
v 121 9
v 122 13
v 123 6
v 124 22
v 125 14
v 126 9
v 127 4
v 128 24
v 129 10
v 130 26
v 131 16
v 132 9
v 133 23
v 134 22
v 135 3
v 136 7
v 137 1
v 138 22
v 139 0
v 140 24
v 141 11
v 142 24
v 143 6
v 144 2
v 145 14
v 146 8
v 147 11
v 148 5
v 149 7
v 150 25
v 151 13
v 152 14
v 153 7
v 154 0
v 155 3
v 156 27
v 157 1
v 158 14
v 159 26
v 160 19
v 161 3
v 162 20
v 163 1
v 164 26
v 165 14
v 166 14
v 167 22
v 168 5
v 169 10
v 170 23
v 171 13
v 172 27
v 173 17
v 174 21
v 175 0
v 176 6
v 177 2
v 178 12
v 179 20
v 180 7
v 181 0
v 182 22
v 183 9
v 184 24
v 185 16
v 186 7
v 187 8
v 188 10
v 189 12
v 190 22
v 191 26
v 192 15
v 193 17
v 194 21
v 195 26
v 196 24
v 197 19
v 198 7
v 199 16
v 200 19
v 201 24
v 202 24
v 203 25
v 204 2
v 205 9
v 206 27
v 207 23
v 208 0
v 209 7
v 210 25
v 211 16
v 212 3
v 213 16
v 214 4
v 215 11
v 216 1
v 217 11
v 218 8
v 219 3
v 220 1
v 221 15
v 222 21
v 223 17
v 224 25
v 225 26
v 226 0
v 227 7
v 228 15
v 229 20
v 230 0
v 231 17
v 232 6
v 233 0
v 234 25
v 235 3
v 236 7
v 237 4
v 238 3
v 239 12
v 240 13
v 241 16
v 242 11
v 243 3
v 244 6
v 245 1
v 246 5
v 247 9
v 248 18
v 249 10
v 250 14
v 251 1
v 252 26
v 253 4
v 254 25
v 255 19
v 256 9
v 257 5
v 258 7
v 259 6
v 260 26
v 261 13
v 262 9
v 263 6
v 264 7
v 265 13
v 266 21
v 267 10
v 268 7
v 269 5
v 270 0
v 271 12
v 272 15
v 273 7
v 274 23
v 275 14
v 276 14
v 277 23
v 278 27
v 279 17
v 280 5
v 281 20
v 282 7
v 283 12
v 284 9
v 285 3
v 286 7
v 287 2
v 288 3
v 289 13
v 290 22
v 291 27
v 292 14
v 293 8
v 294 1
v 295 27
v 296 13
v 297 25
v 298 27
v 299 13
v 300 18
v 301 26
v 302 5
v 303 12
v 304 0
v 305 10
v 306 3
v 307 22
v 308 0
v 309 18
v 310 13
v 311 7
v 312 22
v 313 1
v 314 15
v 315 7
v 316 9
v 317 11
v 318 17
v 319 10
v 320 12
v 321 27
v 322 3
v 323 18
v 324 3
v 325 0
v 326 19
v 327 12
v 328 16
v 329 2
v 330 3
v 331 3
v 332 1
v 333 8
v 334 13
v 335 4
v 336 0
v 337 26
v 338 1
v 339 26
v 340 24
v 341 10
v 342 26
v 343 7
v 344 12
v 345 21
v 346 26
v 347 6
v 348 9
v 349 5
v 350 9
v 351 8
v 352 19
v 353 24
v 354 10
v 355 14
v 356 12
v 357 26
v 358 6
v 359 4
v 360 17
v 361 16
v 362 4
v 363 1
v 364 0
v 365 18
v 366 16
v 367 0
v 368 17
v 369 5
v 370 11
v 371 2
v 372 11
v 373 18
v 374 11
v 375 14
v 376 2
v 377 18
v 378 18
v 379 18
v 380 16
v 381 27
v 382 2
v 383 0
v 384 19
v 385 26
v 386 22
v 387 17
v 388 1
v 389 20
v 390 14
v 391 4
v 392 13
v 393 10
v 394 22
v 395 6
v 396 24
v 397 12
v 398 19
v 399 7
v 400 9
v 401 26
v 402 6
v 403 24
v 404 21
v 405 4
v 406 8
v 407 0
v 408 4
v 409 24
v 410 27
v 411 16
v 412 24
v 413 2
v 414 23
v 415 0
v 416 11
v 417 10
v 418 12
v 419 7
v 420 10
v 421 26
v 422 4
v 423 14
v 424 5
v 425 2
v 426 7
v 427 25
v 428 11
v 429 0
v 430 21
v 431 4
v 432 0
v 433 11
v 434 13
v 435 25
v 436 0
v 437 9
v 438 10
v 439 26
v 440 12
v 441 16
v 442 4
v 443 4
v 444 2
v 445 12
v 446 2
v 447 21
v 448 3
v 449 23
v 450 20
